n_res = 4;
rc = [ 16, 15, 17, 16 ];
n_tasks = 30;
d = [ 8, 7, 9, 10, 3, 9, 7, 8, 8, 2, 4, 7, 4, 4, 10, 6, 10, 4, 8, 3, 5, 2, 10, 7, 5, 10, 7, 8, 2, 1 ];
rr = [| 16, 16, 16, 16, 16, 16, 16, 16, 16, 16, 16, 16, 16, 16, 16, 16, 16, 16, 16, 16, 16, 16, 16, 16, 16, 16, 16, 16, 16, 16
      | 15, 15, 15, 15, 15, 15, 15, 15, 15, 15, 15, 15, 15, 15, 15, 15, 15, 15, 15, 15, 15, 15, 15, 15, 15, 15, 15, 15, 15, 15
      | 17, 17, 17, 17, 17, 17, 17, 17, 17, 17, 17, 17, 17, 17, 17, 17, 17, 17, 17, 17, 17, 17, 17, 17, 17, 17, 17, 17, 17, 17
      | 16, 16, 16, 16, 16, 16, 16, 16, 16, 16, 16, 16, 16, 16, 16, 16, 16, 16, 16, 16, 16, 16, 16, 16, 16, 16, 16, 16, 16, 16|];
suc = [ { 6 },
       { 4, 9, 16 },
       { 4, 5, 26 },
       { 7 },
       { 8, 10, 16 },
       { 11, 14, 17 },
       { 18, 24 },
       { 12, 19 },
       { 11, 14, 17 },
       { 13, 15, 22 },
       { 20, 27 },
       { 13, 25 },
       { 28 },
       { 26, 30 },
       { 17, 18, 23 },
       { 19 },
       { 24, 25, 29 },
       { 28 },
       { 21 },
       { 22, 26, 29 },
       { 22, 25, 27 },
       { 24 },
       { 27 },
       { 30 },
       { 30 },
       { 28 },
       { 29 },
       {  },
       {  },
       {  } ];
